(declare-fun b1116 () (_ FloatingPoint 11 53))
(declare-fun b1111 () (_ FloatingPoint 11 53))
(declare-fun b1398 () (_ FloatingPoint 11 53))
(declare-fun b192 () (_ FloatingPoint 11 53))
(declare-fun b1208 () (_ FloatingPoint 11 53))
(declare-fun b1367 () (_ FloatingPoint 11 53))
(declare-fun b1142 () (_ FloatingPoint 11 53))
(declare-fun b1403 () (_ FloatingPoint 11 53))
(declare-fun b1300 () (_ FloatingPoint 11 53))
(declare-fun b1270 () (_ FloatingPoint 11 53))
(declare-fun b1275 () (_ FloatingPoint 11 53))
(declare-fun b1336 () (_ FloatingPoint 11 53))
(declare-fun b553 () (_ FloatingPoint 11 53))
(declare-fun b1172 () (_ FloatingPoint 11 53))
(declare-fun b238 () (_ FloatingPoint 11 53))
(declare-fun b1239 () (_ FloatingPoint 11 53))
(declare-fun b1218 () (_ FloatingPoint 11 53))
(declare-fun b1346 () (_ FloatingPoint 11 53))
(declare-fun b235 () (_ FloatingPoint 11 53))
(declare-fun b1147 () (_ FloatingPoint 11 53))
(declare-fun b1428 () (_ FloatingPoint 11 53))
(declare-fun b1228 () (_ FloatingPoint 11 53))
(declare-fun b1474 () (_ FloatingPoint 11 53))
(declare-fun b1100 () (_ FloatingPoint 11 53))
(declare-fun b226 () (_ FloatingPoint 11 53))
(declare-fun b1372 () (_ FloatingPoint 11 53))
(declare-fun b1356 () (_ FloatingPoint 11 53))
(declare-fun b1464 () (_ FloatingPoint 11 53))
(declare-fun b1244 () (_ FloatingPoint 11 53))
(declare-fun b204 () (_ FloatingPoint 11 53))
(assert (let ((.def_11 (fp.mul RNE b1100 b226)))
(let ((.def_12 (fp.mul RNE b1100 b1100)))
(let ((.def_13 (fp.neg .def_12)))
(let ((.def_15 (fp.add RNE .def_13 b553)))
(let ((.def_16 (fp.div RNE .def_15 .def_11)))
(let ((.def_17 (fp.add RNE b1100 .def_16)))
(let ((.def_18 (fp.mul RNE .def_17 .def_17)))
(let ((.def_19 (fp.neg .def_18)))
(let ((.def_20 (fp.add RNE b553 .def_19)))
(let ((.def_388 (fp.neg .def_20)))
(let ((.def_389 (= b1111 .def_388)))
(let ((.def_385 (fp.leq b192 .def_20)))
(let ((.def_386 (not .def_385)))
(let ((.def_382 (fp.leq b1142 b238)))
(let ((.def_383 (not .def_382)))
(let ((.def_379 (= b1100 b1116)))
(let ((.def_25 (fp.mul RNE b226 b1116)))
(let ((.def_26 (fp.mul RNE b1116 b1116)))
(let ((.def_27 (fp.neg .def_26)))
(let ((.def_28 (fp.add RNE b553 .def_27)))
(let ((.def_29 (fp.div RNE .def_28 .def_25)))
(let ((.def_30 (fp.add RNE b1116 .def_29)))
(let ((.def_33 (fp.mul RNE .def_30 .def_30)))
(let ((.def_34 (fp.neg .def_33)))
(let ((.def_35 (fp.add RNE b553 .def_34)))
(let ((.def_375 (fp.neg .def_35)))
(let ((.def_376 (= b1142 .def_375)))
(let ((.def_372 (fp.leq b192 .def_35)))
(let ((.def_373 (not .def_372)))
(let ((.def_368 (fp.leq b1172 b238)))
(let ((.def_369 (not .def_368)))
(let ((.def_366 (= b1116 b1147)))
(let ((.def_40 (fp.mul RNE b226 b1147)))
(let ((.def_41 (fp.mul RNE b1147 b1147)))
(let ((.def_42 (fp.neg .def_41)))
(let ((.def_43 (fp.add RNE b553 .def_42)))
(let ((.def_44 (fp.div RNE .def_43 .def_40)))
(let ((.def_45 (fp.add RNE b1147 .def_44)))
(let ((.def_48 (fp.mul RNE .def_45 .def_45)))
(let ((.def_49 (fp.neg .def_48)))
(let ((.def_50 (fp.add RNE b553 .def_49)))
(let ((.def_362 (fp.neg .def_50)))
(let ((.def_363 (= b1172 .def_362)))
(let ((.def_359 (fp.leq b192 .def_50)))
(let ((.def_360 (not .def_359)))
(let ((.def_355 (fp.leq b1208 b238)))
(let ((.def_356 (not .def_355)))
(let ((.def_55 (fp.div RNE b553 b235)))
(let ((.def_56 (fp.mul RNE b226 .def_55)))
(let ((.def_57 (fp.mul RNE .def_55 .def_55)))
(let ((.def_58 (fp.neg .def_57)))
(let ((.def_59 (fp.add RNE b553 .def_58)))
(let ((.def_60 (fp.div RNE .def_59 .def_56)))
(let ((.def_61 (fp.add RNE .def_55 .def_60)))
(let ((.def_64 (fp.mul RNE b226 .def_61)))
(let ((.def_65 (fp.mul RNE .def_61 .def_61)))
(let ((.def_66 (fp.neg .def_65)))
(let ((.def_67 (fp.add RNE b553 .def_66)))
(let ((.def_68 (fp.div RNE .def_67 .def_64)))
(let ((.def_69 (fp.add RNE .def_61 .def_68)))
(let ((.def_70 (fp.mul RNE .def_69 .def_69)))
(let ((.def_71 (fp.neg .def_70)))
(let ((.def_72 (fp.add RNE b553 .def_71)))
(let ((.def_351 (fp.neg .def_72)))
(let ((.def_352 (= b1208 .def_351)))
(let ((.def_348 (fp.leq b192 .def_72)))
(let ((.def_349 (not .def_348)))
(let ((.def_346 (= b1147 .def_69)))
(let ((.def_343 (fp.leq b1218 b238)))
(let ((.def_344 (not .def_343)))
(let ((.def_339 (fp.neg .def_67)))
(let ((.def_340 (= b1218 .def_339)))
(let ((.def_336 (fp.leq b192 .def_67)))
(let ((.def_337 (not .def_336)))
(let ((.def_80 (fp.mul RNE b226 b1228)))
(let ((.def_81 (fp.mul RNE b1228 b1228)))
(let ((.def_82 (fp.neg .def_81)))
(let ((.def_84 (fp.add RNE .def_82 b192)))
(let ((.def_85 (fp.div RNE .def_84 .def_80)))
(let ((.def_86 (fp.add RNE b1228 .def_85)))
(let ((.def_87 (fp.mul RNE .def_86 .def_86)))
(let ((.def_88 (fp.neg .def_87)))
(let ((.def_89 (fp.add RNE b192 .def_88)))
(let ((.def_332 (fp.neg .def_89)))
(let ((.def_333 (= b1239 .def_332)))
(let ((.def_329 (fp.leq b192 .def_89)))
(let ((.def_330 (not .def_329)))
(let ((.def_326 (fp.leq b1270 b238)))
(let ((.def_327 (not .def_326)))
(let ((.def_323 (= b1228 b1244)))
(let ((.def_94 (fp.mul RNE b226 b1244)))
(let ((.def_95 (fp.mul RNE b1244 b1244)))
(let ((.def_96 (fp.neg .def_95)))
(let ((.def_97 (fp.add RNE b192 .def_96)))
(let ((.def_98 (fp.div RNE .def_97 .def_94)))
(let ((.def_99 (fp.add RNE b1244 .def_98)))
(let ((.def_102 (fp.mul RNE .def_99 .def_99)))
(let ((.def_103 (fp.neg .def_102)))
(let ((.def_104 (fp.add RNE b192 .def_103)))
(let ((.def_319 (fp.neg .def_104)))
(let ((.def_320 (= b1270 .def_319)))
(let ((.def_316 (fp.leq b192 .def_104)))
(let ((.def_317 (not .def_316)))
(let ((.def_312 (fp.leq b1300 b238)))
(let ((.def_313 (not .def_312)))
(let ((.def_310 (= b1244 b1275)))
(let ((.def_109 (fp.mul RNE b226 b1275)))
(let ((.def_110 (fp.mul RNE b1275 b1275)))
(let ((.def_111 (fp.neg .def_110)))
(let ((.def_112 (fp.add RNE b192 .def_111)))
(let ((.def_113 (fp.div RNE .def_112 .def_109)))
(let ((.def_114 (fp.add RNE b1275 .def_113)))
(let ((.def_117 (fp.mul RNE .def_114 .def_114)))
(let ((.def_118 (fp.neg .def_117)))
(let ((.def_119 (fp.add RNE b192 .def_118)))
(let ((.def_306 (fp.neg .def_119)))
(let ((.def_307 (= b1300 .def_306)))
(let ((.def_303 (fp.leq b192 .def_119)))
(let ((.def_304 (not .def_303)))
(let ((.def_299 (fp.leq b1336 b238)))
(let ((.def_300 (not .def_299)))
(let ((.def_123 (fp.div RNE b192 b235)))
(let ((.def_124 (fp.mul RNE b226 .def_123)))
(let ((.def_125 (fp.mul RNE .def_123 .def_123)))
(let ((.def_126 (fp.neg .def_125)))
(let ((.def_127 (fp.add RNE b192 .def_126)))
(let ((.def_128 (fp.div RNE .def_127 .def_124)))
(let ((.def_129 (fp.add RNE .def_123 .def_128)))
(let ((.def_132 (fp.mul RNE b226 .def_129)))
(let ((.def_133 (fp.mul RNE .def_129 .def_129)))
(let ((.def_134 (fp.neg .def_133)))
(let ((.def_135 (fp.add RNE b192 .def_134)))
(let ((.def_136 (fp.div RNE .def_135 .def_132)))
(let ((.def_137 (fp.add RNE .def_129 .def_136)))
(let ((.def_138 (fp.mul RNE .def_137 .def_137)))
(let ((.def_139 (fp.neg .def_138)))
(let ((.def_140 (fp.add RNE b192 .def_139)))
(let ((.def_295 (fp.neg .def_140)))
(let ((.def_296 (= b1336 .def_295)))
(let ((.def_292 (fp.leq b192 .def_140)))
(let ((.def_293 (not .def_292)))
(let ((.def_290 (= b1275 .def_137)))
(let ((.def_287 (fp.leq b1346 b238)))
(let ((.def_288 (not .def_287)))
(let ((.def_283 (fp.neg .def_135)))
(let ((.def_284 (= b1346 .def_283)))
(let ((.def_280 (fp.leq b192 .def_135)))
(let ((.def_281 (not .def_280)))
(let ((.def_148 (fp.mul RNE b226 b1356)))
(let ((.def_149 (fp.mul RNE b1356 b1356)))
(let ((.def_150 (fp.neg .def_149)))
(let ((.def_152 (fp.add RNE .def_150 b204)))
(let ((.def_153 (fp.div RNE .def_152 .def_148)))
(let ((.def_154 (fp.add RNE b1356 .def_153)))
(let ((.def_155 (fp.mul RNE .def_154 .def_154)))
(let ((.def_156 (fp.neg .def_155)))
(let ((.def_157 (fp.add RNE b204 .def_156)))
(let ((.def_276 (fp.neg .def_157)))
(let ((.def_277 (= b1367 .def_276)))
(let ((.def_273 (fp.leq b192 .def_157)))
(let ((.def_274 (not .def_273)))
(let ((.def_270 (fp.leq b1398 b238)))
(let ((.def_271 (not .def_270)))
(let ((.def_267 (= b1356 b1372)))
(let ((.def_162 (fp.mul RNE b226 b1372)))
(let ((.def_163 (fp.mul RNE b1372 b1372)))
(let ((.def_164 (fp.neg .def_163)))
(let ((.def_165 (fp.add RNE b204 .def_164)))
(let ((.def_166 (fp.div RNE .def_165 .def_162)))
(let ((.def_167 (fp.add RNE b1372 .def_166)))
(let ((.def_170 (fp.mul RNE .def_167 .def_167)))
(let ((.def_171 (fp.neg .def_170)))
(let ((.def_172 (fp.add RNE b204 .def_171)))
(let ((.def_263 (fp.neg .def_172)))
(let ((.def_264 (= b1398 .def_263)))
(let ((.def_260 (fp.leq b192 .def_172)))
(let ((.def_261 (not .def_260)))
(let ((.def_256 (fp.leq b1428 b238)))
(let ((.def_257 (not .def_256)))
(let ((.def_254 (= b1372 b1403)))
(let ((.def_177 (fp.mul RNE b226 b1403)))
(let ((.def_178 (fp.mul RNE b1403 b1403)))
(let ((.def_179 (fp.neg .def_178)))
(let ((.def_180 (fp.add RNE b204 .def_179)))
(let ((.def_181 (fp.div RNE .def_180 .def_177)))
(let ((.def_182 (fp.add RNE b1403 .def_181)))
(let ((.def_185 (fp.mul RNE .def_182 .def_182)))
(let ((.def_186 (fp.neg .def_185)))
(let ((.def_187 (fp.add RNE b204 .def_186)))
(let ((.def_250 (fp.neg .def_187)))
(let ((.def_251 (= b1428 .def_250)))
(let ((.def_247 (fp.leq b192 .def_187)))
(let ((.def_248 (not .def_247)))
(let ((.def_243 (fp.leq b1464 b238)))
(let ((.def_244 (not .def_243)))
(let ((.def_191 (fp.div RNE b204 b235)))
(let ((.def_192 (fp.mul RNE b226 .def_191)))
(let ((.def_193 (fp.mul RNE .def_191 .def_191)))
(let ((.def_194 (fp.neg .def_193)))
(let ((.def_195 (fp.add RNE b204 .def_194)))
(let ((.def_196 (fp.div RNE .def_195 .def_192)))
(let ((.def_197 (fp.add RNE .def_191 .def_196)))
(let ((.def_200 (fp.mul RNE b226 .def_197)))
(let ((.def_201 (fp.mul RNE .def_197 .def_197)))
(let ((.def_202 (fp.neg .def_201)))
(let ((.def_203 (fp.add RNE b204 .def_202)))
(let ((.def_204 (fp.div RNE .def_203 .def_200)))
(let ((.def_205 (fp.add RNE .def_197 .def_204)))
(let ((.def_206 (fp.mul RNE .def_205 .def_205)))
(let ((.def_207 (fp.neg .def_206)))
(let ((.def_208 (fp.add RNE b204 .def_207)))
(let ((.def_239 (fp.neg .def_208)))
(let ((.def_240 (= b1464 .def_239)))
(let ((.def_236 (fp.leq b192 .def_208)))
(let ((.def_237 (not .def_236)))
(let ((.def_234 (= b1403 .def_205)))
(let ((.def_231 (fp.leq b1474 b238)))
(let ((.def_232 (not .def_231)))
(let ((.def_226 (fp.neg .def_203)))
(let ((.def_227 (= b1474 .def_226)))
(let ((.def_223 (fp.leq b192 .def_203)))
(let ((.def_224 (not .def_223)))
(let ((.def_220 (fp.eq b553 b192)))
(let ((.def_221 (not .def_220)))
(let ((.def_217 (fp.eq b192 b204)))
(let ((.def_218 (not .def_217)))
(let ((.def_215 (fp.eq b192 b192)))
(let ((.def_216 (not .def_215)))
(let ((.def_219 (and .def_216 .def_218)))
(let ((.def_222 (and .def_219 .def_221)))
(let ((.def_225 (and .def_222 .def_224)))
(let ((.def_228 (and .def_225 .def_227)))
(let ((.def_213 (= .def_203 b1474)))
(let ((.def_214 (not .def_213)))
(let ((.def_229 (and .def_214 .def_228)))
(let ((.def_233 (and .def_229 .def_232)))
(let ((.def_235 (and .def_233 .def_234)))
(let ((.def_238 (and .def_235 .def_237)))
(let ((.def_241 (and .def_238 .def_240)))
(let ((.def_210 (= .def_208 b1464)))
(let ((.def_211 (not .def_210)))
(let ((.def_242 (and .def_211 .def_241)))
(let ((.def_245 (and .def_242 .def_244)))
(let ((.def_198 (= b1403 .def_197)))
(let ((.def_199 (not .def_198)))
(let ((.def_246 (and .def_199 .def_245)))
(let ((.def_249 (and .def_246 .def_248)))
(let ((.def_252 (and .def_249 .def_251)))
(let ((.def_189 (= .def_187 b1428)))
(let ((.def_190 (not .def_189)))
(let ((.def_253 (and .def_190 .def_252)))
(let ((.def_255 (and .def_253 .def_254)))
(let ((.def_258 (and .def_255 .def_257)))
(let ((.def_183 (= b1372 .def_182)))
(let ((.def_184 (not .def_183)))
(let ((.def_259 (and .def_184 .def_258)))
(let ((.def_262 (and .def_259 .def_261)))
(let ((.def_265 (and .def_262 .def_264)))
(let ((.def_174 (= .def_172 b1398)))
(let ((.def_175 (not .def_174)))
(let ((.def_266 (and .def_175 .def_265)))
(let ((.def_268 (and .def_266 .def_267)))
(let ((.def_168 (= b1356 .def_167)))
(let ((.def_169 (not .def_168)))
(let ((.def_269 (and .def_169 .def_268)))
(let ((.def_272 (and .def_269 .def_271)))
(let ((.def_275 (and .def_272 .def_274)))
(let ((.def_278 (and .def_275 .def_277)))
(let ((.def_159 (= .def_157 b1367)))
(let ((.def_160 (not .def_159)))
(let ((.def_279 (and .def_160 .def_278)))
(let ((.def_282 (and .def_279 .def_281)))
(let ((.def_285 (and .def_282 .def_284)))
(let ((.def_145 (= .def_135 b1346)))
(let ((.def_146 (not .def_145)))
(let ((.def_286 (and .def_146 .def_285)))
(let ((.def_289 (and .def_286 .def_288)))
(let ((.def_291 (and .def_289 .def_290)))
(let ((.def_294 (and .def_291 .def_293)))
(let ((.def_297 (and .def_294 .def_296)))
(let ((.def_142 (= .def_140 b1336)))
(let ((.def_143 (not .def_142)))
(let ((.def_298 (and .def_143 .def_297)))
(let ((.def_301 (and .def_298 .def_300)))
(let ((.def_130 (= b1275 .def_129)))
(let ((.def_131 (not .def_130)))
(let ((.def_302 (and .def_131 .def_301)))
(let ((.def_305 (and .def_302 .def_304)))
(let ((.def_308 (and .def_305 .def_307)))
(let ((.def_121 (= .def_119 b1300)))
(let ((.def_122 (not .def_121)))
(let ((.def_309 (and .def_122 .def_308)))
(let ((.def_311 (and .def_309 .def_310)))
(let ((.def_314 (and .def_311 .def_313)))
(let ((.def_115 (= b1244 .def_114)))
(let ((.def_116 (not .def_115)))
(let ((.def_315 (and .def_116 .def_314)))
(let ((.def_318 (and .def_315 .def_317)))
(let ((.def_321 (and .def_318 .def_320)))
(let ((.def_106 (= .def_104 b1270)))
(let ((.def_107 (not .def_106)))
(let ((.def_322 (and .def_107 .def_321)))
(let ((.def_324 (and .def_322 .def_323)))
(let ((.def_100 (= b1228 .def_99)))
(let ((.def_101 (not .def_100)))
(let ((.def_325 (and .def_101 .def_324)))
(let ((.def_328 (and .def_325 .def_327)))
(let ((.def_331 (and .def_328 .def_330)))
(let ((.def_334 (and .def_331 .def_333)))
(let ((.def_91 (= .def_89 b1239)))
(let ((.def_92 (not .def_91)))
(let ((.def_335 (and .def_92 .def_334)))
(let ((.def_338 (and .def_335 .def_337)))
(let ((.def_341 (and .def_338 .def_340)))
(let ((.def_77 (= .def_67 b1218)))
(let ((.def_78 (not .def_77)))
(let ((.def_342 (and .def_78 .def_341)))
(let ((.def_345 (and .def_342 .def_344)))
(let ((.def_347 (and .def_345 .def_346)))
(let ((.def_350 (and .def_347 .def_349)))
(let ((.def_353 (and .def_350 .def_352)))
(let ((.def_74 (= .def_72 b1208)))
(let ((.def_75 (not .def_74)))
(let ((.def_354 (and .def_75 .def_353)))
(let ((.def_357 (and .def_354 .def_356)))
(let ((.def_62 (= b1147 .def_61)))
(let ((.def_63 (not .def_62)))
(let ((.def_358 (and .def_63 .def_357)))
(let ((.def_361 (and .def_358 .def_360)))
(let ((.def_364 (and .def_361 .def_363)))
(let ((.def_52 (= .def_50 b1172)))
(let ((.def_53 (not .def_52)))
(let ((.def_365 (and .def_53 .def_364)))
(let ((.def_367 (and .def_365 .def_366)))
(let ((.def_370 (and .def_367 .def_369)))
(let ((.def_46 (= b1116 .def_45)))
(let ((.def_47 (not .def_46)))
(let ((.def_371 (and .def_47 .def_370)))
(let ((.def_374 (and .def_371 .def_373)))
(let ((.def_377 (and .def_374 .def_376)))
(let ((.def_37 (= .def_35 b1142)))
(let ((.def_38 (not .def_37)))
(let ((.def_378 (and .def_38 .def_377)))
(let ((.def_380 (and .def_378 .def_379)))
(let ((.def_31 (= b1100 .def_30)))
(let ((.def_32 (not .def_31)))
(let ((.def_381 (and .def_32 .def_380)))
(let ((.def_384 (and .def_381 .def_383)))
(let ((.def_387 (and .def_384 .def_386)))
(let ((.def_390 (and .def_387 .def_389)))
(let ((.def_22 (= .def_20 b1111)))
(let ((.def_23 (not .def_22)))
(let ((.def_391 (and .def_23 .def_390)))
.def_391))))))))))))))))))))))))))))))))))))))))))))))))))))))))))))))))))))))))))))))))))))))))))))))))))))))))))))))))))))))))))))))))))))))))))))))))))))))))))))))))))))))))))))))))))))))))))))))))))))))))))))))))))))))))))))))))))))))))))))))))))))))))))))))))))))))))))))))))))))))))))))))))))))))))))))))))))))))))))))))))))))))))))))))))))))))))))))))))))
(check-sat)
